SPARKNaCl/why3-cvc5/sparknacl-scalar.adb_50_30_range_check2_1.smt2
;; produced by cvc5.drv ;;
(set-logic ALL)
(set-info :smt-lib-version 2.6)
;;; generated by SMT-LIB2 driver
;;; SMT-LIB2 driver: bit-vectors, common part
;;; SMT-LIB2: integer arithmetic
;; "length"
(define-fun length ((x Int) (y Int)) Int
  (ite (<= x y) (+ (- y x) 1) 0))

;; "pow2"
(declare-fun pow2 (Int) Int)

(declare-const two_power_size_minus_one Int)

;; "two_power_size_minus_one_val"
(assert (= two_power_size_minus_one (pow2 (- 8 1))))

;; "min"
(define-fun min ((x Int) (y Int)) Int
  (ite (<= x y) x y))

;; "max"
(define-fun max ((x Int) (y Int)) Int
  (ite (<= x y) y x))

;; "Min_r"
(assert (forall ((x Int) (y Int)) (=> (<= y x) (= (min x y) y))))

;; "Max_l"
(assert (forall ((x Int) (y Int)) (=> (<= y x) (= (max x y) x))))

;; "Min_comm"
(assert (forall ((x Int) (y Int)) (= (min x y) (min y x))))

;; "Max_comm"
(assert (forall ((x Int) (y Int)) (= (max x y) (max y x))))

;; "Min_assoc"
(assert
  (forall ((x Int) (y Int) (z Int)) (= (min (min x y) z) (min x (min y z)))))

;; "Max_assoc"
(assert
  (forall ((x Int) (y Int) (z Int)) (= (max (max x y) z) (max x (max y z)))))

(declare-const two_power_size_minus_one1 Int)

;; "two_power_size_minus_one_val"
(assert (= two_power_size_minus_one1 (pow2 (- 16 1))))

;; "lsr"
(declare-fun lsr ((_ BitVec 32)
  Int) (_ BitVec 32))

(declare-const two_power_size_minus_one2 Int)

;; "two_power_size_minus_one_val"
(assert (= two_power_size_minus_one2 (pow2 (- 32 1))))

;; "lsr_bv_is_lsr"
(assert
  (forall ((x (_ BitVec 32)) (n (_ BitVec 32)))
    (= (bvlshr x n) (lsr x (bv2nat n)))))

;; "in_range"
(define-fun in_range ((x Int)) Bool
  (and (<= 0 x) (<= x 2147483647)))

(declare-sort byte 0)

;; "to_rep"
(declare-fun to_rep (byte) (_ BitVec 8))

;; "of_rep"
(declare-fun of_rep ((_ BitVec 8)) byte)

;; "inversion_axiom"
(assert
  (forall ((x byte)) (! (= (of_rep (to_rep x)) x) :pattern ((to_rep x)) )))

;; "range_axiom"
(assert true)

;; "coerce_axiom"
(assert
  (forall ((x (_ BitVec 8)))
    (! (= (to_rep (of_rep x)) x) :pattern ((to_rep (of_rep x))) )))

(declare-sort map1 0)

;; "has_bounds"
(declare-fun has_bounds (map1
  Int
  Int) Bool)

;; "get"
(declare-fun get (map1
  Int) byte)

;; "slide"
(declare-fun slide (map1
  Int
  Int) map1)

;; "slide_eq"
(assert
  (forall ((a map1) (first Int))
    (! (= (slide a first first) a) :pattern ((slide a first first)) )))

;; "slide_def"
(assert
  (forall ((a map1) (old_first Int) (new_first Int))
    (! (and
         (forall ((i Int))
           (! (= (get (slide a old_first new_first) i) (get
                                                         a
                                                         (- i (- new_first old_first)))) :pattern (
           (get
             (slide a old_first new_first)
             i)) ))
         (forall ((new_last Int))
           (! (=>
                (has_bounds a old_first (- new_last (- new_first old_first)))
                (has_bounds (slide a old_first new_first) new_first new_last)) :pattern (
           (has_bounds
             (slide a old_first new_first)
             new_first
             new_last)) ))) :pattern ((slide a old_first new_first)) )))

;; "slice"
(declare-fun slice (map1
  Int
  Int) map1)

;; "slice_eq"
(assert
  (forall ((a map1) (f Int) (l Int))
    (! (=> (has_bounds a f l) (= (slice a f l) a)) :pattern ((slice a f l)
    (has_bounds a f l)) )))

;; "slice_slice"
(assert
  (forall ((a map1) (f1 Int) (l1 Int) (f2 Int) (l2 Int))
    (! (=>
         (and (<= f1 f2) (<= l2 l1))
         (= (slice (slice a f1 l1) f2 l2) (slice a f2 l2))) :pattern (
    (slice
      (slice a f1 l1)
      f2
      l2)) )))

;; "slice_def"
(assert
  (forall ((a map1) (f Int) (l Int))
    (! (forall ((i Int))
         (! (=> (and (<= f i) (<= i l)) (= (get (slice a f l) i) (get a i))) :pattern (
         (get
           (slice a f l)
           i)) :pattern ((get a i)) )) :pattern ((slice a f l)) )))

;; "slice_has_bounds"
(assert
  (forall ((a map1) (f Int) (l Int))
    (! (has_bounds (slice a f l) f l) :pattern ((has_bounds
                                                  (slice a f l)
                                                  f
                                                  l)) )))

;; "concat_singleton_left"
(declare-fun concat_singleton_left (byte
  Int
  map1
  Int
  Int
  Int) map1)

;; "concat_singleton_left_def"
(assert
  (forall ((a byte) (b map1) (a_first Int) (b_first Int) (b_last Int) (new_last Int))
    (! (and
         (=>
           (<= a_first new_last)
           (has_bounds
             (concat_singleton_left a a_first b b_first b_last new_last)
             a_first
             new_last))
         (and
           (= (get
                (concat_singleton_left a a_first b b_first b_last new_last)
                a_first) a)
           (forall ((i Int))
             (! (=>
                  (and (< a_first i) (<= i new_last))
                  (= (get
                       (concat_singleton_left
                         a
                         a_first
                         b
                         b_first
                         b_last
                         new_last)
                       i) (get b (+ (- i a_first) (- b_first 1))))) :pattern (
             (get
               (concat_singleton_left a a_first b b_first b_last new_last)
               i)) )))) :pattern ((concat_singleton_left
                                    a
                                    a_first
                                    b
                                    b_first
                                    b_last
                                    new_last)) )))

;; "concat_singleton_left_def_eq"
(assert
  (forall ((a byte) (b map1) (a_first Int) (b_last Int) (new_last Int) (i Int))
    (! (=>
         (and (< a_first i) (<= i new_last))
         (= (get
              (concat_singleton_left a a_first b a_first b_last new_last)
              i) (get b (- i 1)))) :pattern ((get
                                               (concat_singleton_left
                                                 a
                                                 a_first
                                                 b
                                                 a_first
                                                 b_last
                                                 new_last)
                                               i)) )))

;; "concat_singleton_right"
(declare-fun concat_singleton_right (map1
  Int
  Int
  byte
  Int) map1)

;; "concat_singleton_right_def"
(assert
  (forall ((a map1) (b byte) (a_first Int) (a_last Int) (new_last Int))
    (! (and
         (=>
           (and (<= a_first a_last) (< a_last new_last))
           (=>
             (has_bounds a a_first a_last)
             (has_bounds
               (concat_singleton_right a a_first a_last b new_last)
               a_first
               new_last)))
         (and
           (=>
             (< a_last (+ a_last 1))
             (= (get
                  (concat_singleton_right a a_first a_last b new_last)
                  (+ a_last 1)) b))
           (forall ((i Int))
             (! (=>
                  (and (<= a_first i) (<= i a_last))
                  (= (get
                       (concat_singleton_right a a_first a_last b new_last)
                       i) (get a i))) :pattern ((get
                                                  (concat_singleton_right
                                                    a
                                                    a_first
                                                    a_last
                                                    b
                                                    new_last)
                                                  i)) :pattern ((get a i)) )))) :pattern (
    (concat_singleton_right
      a
      a_first
      a_last
      b
      new_last)) )))

;; "singleton"
(declare-fun singleton1 (byte
  Int) map1)

;; "singleton_bounds"
(assert
  (forall ((v byte) (i Int))
    (! (and (has_bounds (singleton1 v i) i i) (= (get (singleton1 v i) i) v)) :pattern (
    (singleton1
      v
      i)) )))

(declare-const n map1)

(declare-const p map1)

(declare-sort gf16_normal_limb 0)

;; "to_rep"
(declare-fun to_rep1 (gf16_normal_limb) (_ BitVec 16))

;; "of_rep"
(declare-fun of_rep1 ((_ BitVec 16)) gf16_normal_limb)

;; "inversion_axiom"
(assert
  (forall ((x gf16_normal_limb))
    (! (= (of_rep1 (to_rep1 x)) x) :pattern ((to_rep1 x)) )))

;; "range_axiom"
(assert true)

;; "coerce_axiom"
(assert
  (forall ((x (_ BitVec 16)))
    (! (= (to_rep1 (of_rep1 x)) x) :pattern ((to_rep1 (of_rep1 x))) )))

(declare-sort map2 0)

;; "has_bounds"
(declare-fun has_bounds1 (map2
  Int
  Int) Bool)

;; "get"
(declare-fun get1 (map2
  Int) gf16_normal_limb)

(declare-const gf_121665 map2)

;; "unpack_25519"
(declare-fun unpack_25519 (map1) map2)

;; "unpack_25519__function_guard"
(declare-fun unpack_25519__function_guard (map2
  map1) Bool)

(declare-const gf_0 map2)

(declare-const gf_1 map2)

(declare-sort tinteger_32B 0)

;; "tinteger_32B'int"
(declare-fun tinteger_32Bqtint (tinteger_32B) Int)

;; "tinteger_32B'axiom"
(assert
  (forall ((i tinteger_32B))
    (and
      (<= (- 2147483648) (tinteger_32Bqtint i))
      (<= (tinteger_32Bqtint i) 2147483647))))

;; "in_range"
(define-fun in_range1 ((x Int)) Bool
  (and (<= (- 2147483648) x) (<= x 2147483647)))

;; "to_rep"
(define-fun to_rep2 ((x tinteger_32B)) Int
  (tinteger_32Bqtint x))

;; "of_rep"
(declare-fun of_rep2 (Int) tinteger_32B)

;; "inversion_axiom"
(assert
  (forall ((x tinteger_32B))
    (! (= (of_rep2 (to_rep2 x)) x) :pattern ((to_rep2 x)) )))

;; "range_axiom"
(assert
  (forall ((x tinteger_32B))
    (! (in_range1 (to_rep2 x)) :pattern ((to_rep2 x)) )))

;; "coerce_axiom"
(assert
  (forall ((x Int))
    (! (=> (in_range1 x) (= (to_rep2 (of_rep2 x)) x)) :pattern ((to_rep2
                                                                  (of_rep2 x))) )))

;; "in_range"
(define-fun in_range2 ((x Int)) Bool
  (and (<= 0 x) (<= x 2147483647)))

(declare-datatypes ((t 0))
  (((tqtmk (rec__first tinteger_32B)(rec__last tinteger_32B)))))

;; "mk"
(declare-fun mk (Int
  Int) t)

;; "mk_def"
(assert
  (forall ((f Int) (l Int))
    (! (=>
         (in_range1 f)
         (=>
           (in_range1 l)
           (and
             (= (to_rep2 (rec__first (mk f l))) f)
             (= (to_rep2 (rec__last (mk f l))) l)))) :pattern ((mk f l)) )))

(declare-datatypes ((us_t 0))
  (((us_tqtmk (elts map1)(rt t)))))

;; "to_array"
(define-fun to_array ((a us_t)) map1
  (elts a))

;; "of_array"
(define-fun of_array ((a map1) (f Int) (l Int)) us_t
  (us_tqtmk a (mk f l)))

;; "first"
(define-fun first ((a us_t)) Int
  (to_rep2 (rec__first (rt a))))

;; "last"
(define-fun last ((a us_t)) Int
  (to_rep2 (rec__last (rt a))))

;; "length"
(define-fun length1 ((a us_t)) Int
  (ite (<= (first a) (last a)) (+ (- (last a) (first a)) 1) 0))

;; "in_range"
(define-fun in_range3 ((x Int)) Bool
  (and (<= (- 2147483648) x) (<= x 2147483647)))

;; "ada___sparknacl__scalar__gf_121665__aggregate_def"
(declare-fun ada___sparknacl__scalar__gf_121665__aggregate_def ((_ BitVec 16)
  (_ BitVec 16)
  (_ BitVec 16)) map2)

;; "sparknacl__gf_0__aggregate_def"
(declare-fun sparknacl__gf_0__aggregate_def ((_ BitVec 16)) map2)

;; "sparknacl__gf_1__aggregate_def"
(declare-fun sparknacl__gf_1__aggregate_def ((_ BitVec 16)
  (_ BitVec 16)) map2)

;; "gf_121665__def_axiom"
(assert
  (= gf_121665 (let ((temp___185qtunused (ada___sparknacl__scalar__gf_121665__aggregate_def
                                           #xDB41
                                           #x0001
                                           #x0000)))
                 (ada___sparknacl__scalar__gf_121665__aggregate_def
                   #xDB41
                   #x0001
                   #x0000))))

;; "def_axiom"
(assert
  (forall ((temp___179 (_ BitVec 16)) (temp___180 (_ BitVec 16)) (temp___181 (_ BitVec 16)))
    (let ((temp___182 (ada___sparknacl__scalar__gf_121665__aggregate_def
                        temp___179
                        temp___180
                        temp___181)))
      (and
        (and
          (and
            (= (to_rep1 (get1 temp___182 0)) temp___179)
            (= (to_rep1 (get1 temp___182 1)) temp___180))
          (=>
            (and (and (<= 0 0) (<= 0 15)) (and (<= 0 1) (<= 1 15)))
            (has_bounds1 temp___182 0 15)))
        (forall ((temp___183 Int))
          (! (=>
               (and (<= 0 temp___183) (<= temp___183 15))
               (=>
                 (and (not (= temp___183 0)) (not (= temp___183 1)))
                 (= (to_rep1 (get1 temp___182 temp___183)) temp___181))) :pattern (
          (get1
            temp___182
            temp___183)) ))))))

;; "gf_0__def_axiom"
(assert
  (= gf_0 (let ((temp___192qtunused (sparknacl__gf_0__aggregate_def #x0000)))
            (sparknacl__gf_0__aggregate_def #x0000))))

;; "def_axiom"
(assert
  (forall ((temp___188 (_ BitVec 16)))
    (let ((temp___189 (sparknacl__gf_0__aggregate_def temp___188)))
      (and
        (has_bounds1 temp___189 0 15)
        (forall ((temp___190 Int))
          (! (=>
               (and (<= 0 temp___190) (<= temp___190 15))
               (= (to_rep1 (get1 temp___189 temp___190)) temp___188)) :pattern (
          (get1
            temp___189
            temp___190)) ))))))

;; "gf_1__def_axiom"
(assert
  (= gf_1 (let ((temp___199qtunused (sparknacl__gf_1__aggregate_def
                                      #x0001
                                      #x0000)))
            (sparknacl__gf_1__aggregate_def #x0001 #x0000))))

;; "def_axiom"
(assert
  (forall ((temp___194 (_ BitVec 16)) (temp___195 (_ BitVec 16)))
    (let ((temp___196 (sparknacl__gf_1__aggregate_def temp___194 temp___195)))
      (and
        (and
          (= (to_rep1 (get1 temp___196 0)) temp___194)
          (=> (and (<= 0 0) (<= 0 15)) (has_bounds1 temp___196 0 15)))
        (forall ((temp___197 Int))
          (! (=>
               (and (<= 0 temp___197) (<= temp___197 15))
               (=>
                 (not (= temp___197 0))
                 (= (to_rep1 (get1 temp___196 temp___197)) temp___195))) :pattern (
          (get1
            temp___196
            temp___197)) ))))))

;; Goal "def'vc"
;; File "sparknacl-scalar.ads", line 9, characters 0-0
(assert
  (not
  (forall ((shift Int) (a map2) (b map2) (c map2) (d map2) (e map2) (f map2) (t1 map2) (t2 map2) (result__ map1))
    (=>
      (has_bounds1 gf_121665 0 15)
      (forall ((temp___511 map2))
        (=>
          (and
            (and
              (and
                (and
                  (= (to_rep1 (get1 temp___511 0)) #xDB41)
                  (= (to_rep1 (get1 temp___511 1)) #x0001))
                (has_bounds1 temp___511 0 15))
              (forall ((temp___184 Int))
                (! (=>
                     (and (<= 0 temp___184) (<= temp___184 15))
                     (=>
                       (and (not (= temp___184 0)) (not (= temp___184 1)))
                       (= (to_rep1 (get1 temp___511 temp___184)) #x0000))) :pattern (
                (get1
                  temp___511
                  temp___184)) )))
            (= temp___511 (ada___sparknacl__scalar__gf_121665__aggregate_def
                            #xDB41
                            #x0001
                            #x0000)))
          (=>
            (= temp___511 gf_121665)
            (=>
              (has_bounds1 gf_0 0 15)
              (forall ((temp___516 map2))
                (=>
                  (and
                    (and
                      (has_bounds1 temp___516 0 15)
                      (forall ((temp___191 Int))
                        (! (=>
                             (and (<= 0 temp___191) (<= temp___191 15))
                             (= (to_rep1 (get1 temp___516 temp___191)) #x0000)) :pattern (
                        (get1
                          temp___516
                          temp___191)) )))
                    (= temp___516 (sparknacl__gf_0__aggregate_def #x0000)))
                  (=>
                    (= temp___516 gf_0)
                    (=>
                      (has_bounds1 gf_1 0 15)
                      (forall ((temp___522 map2))
                        (=>
                          (and
                            (and
                              (and
                                (= (to_rep1 (get1 temp___522 0)) #x0001)
                                (has_bounds1 temp___522 0 15))
                              (forall ((temp___198 Int))
                                (! (=>
                                     (and
                                       (<= 0 temp___198)
                                       (<= temp___198 15))
                                     (=>
                                       (not (= temp___198 0))
                                       (= (to_rep1
                                            (get1 temp___522 temp___198)) #x0000))) :pattern (
                                (get1
                                  temp___522
                                  temp___198)) )))
                            (= temp___522 (sparknacl__gf_1__aggregate_def
                                            #x0001
                                            #x0000)))
                          (=>
                            (= temp___522 gf_1)
                            (=>
                              (has_bounds n 0 31)
                              (=>
                                (has_bounds p 0 31)
                                (let ((o p))
                                  (let ((o1 (unpack_25519 o)))
                                    (=>
                                      (and
                                        (unpack_25519__function_guard o1 o)
                                        (has_bounds1 o1 0 15))
                                      (forall ((x map2))
                                        (=>
                                          (= x o1)
                                          (=>
                                            (has_bounds1 x 0 15)
                                            (forall ((temp___415 us_t))
                                              (=>
                                                (exists ((o2 (_ BitVec 8)))
                                                  (and
                                                    (= (to_rep (get n 31)) o2)
                                                    (let ((temp___414 (bvor (bvand o2 #x7F) #x40)))
                                                      (and
                                                        (=>
                                                          (<= 1 30)
                                                          (and
                                                            (and
                                                              (<= 0 1)
                                                              (<= 1 31))
                                                            (and
                                                              (<= 0 30)
                                                              (<= 30 31))))
                                                        (exists ((o3 (_ BitVec 8)))
                                                          (and
                                                            (= (to_rep
                                                                 (get n 0)) o3)
                                                            (let ((o4 (- (+ 0 (+ 1 
                                                              (length
                                                                1
                                                                30))) 1)))
                                                              (and
                                                                (in_range2
                                                                  o4)
                                                                (exists 
                                                                  ((o5 byte))
                                                                  (and
                                                                    (= 
                                                                    (to_rep
                                                                    o5) (bvand o3 #xF8))
                                                                    (let ((o6 
                                                                    (concat_singleton_left
                                                                    o5
                                                                    0
                                                                    (slice
                                                                    n
                                                                    1
                                                                    30)
                                                                    1
                                                                    30
                                                                    (+ 0 
                                                                    (length
                                                                    1
                                                                    30)))))
                                                                    (ite (= 
                                                                    (length1
                                                                    (of_array
                                                                    o6
                                                                    0
                                                                    o4)) 0)
                                                                    (exists 
                                                                    ((o7 byte))
                                                                    (and
                                                                    (= 
                                                                    (to_rep
                                                                    o7) temp___414)
                                                                    (= temp___415 
                                                                    (of_array
                                                                    (singleton1
                                                                    o7
                                                                    0)
                                                                    0
                                                                    0))))
                                                                    (let ((o7 (- (+ 0 (+ 
                                                                    (length
                                                                    0
                                                                    o4) 1)) 1)))
                                                                    (and
                                                                    (in_range2
                                                                    o7)
                                                                    (exists 
                                                                    ((o8 byte))
                                                                    (and
                                                                    (= 
                                                                    (to_rep
                                                                    o8) temp___414)
                                                                    (= temp___415 
                                                                    (of_array
                                                                    (concat_singleton_right
                                                                    o6
                                                                    0
                                                                    o4
                                                                    o8
                                                                    (+ 2147483647 1))
                                                                    0
                                                                    o7))))))))))))))))))
                                                (=>
                                                  (ite (<= (first temp___415) 
                                                    (last
                                                      temp___415))
                                                    (and
                                                      (<= 0 31)
                                                      (= (- (last temp___415) 
                                                      (first
                                                        temp___415)) (- 31 0)))
                                                    (< 31 0))
                                                  (forall ((z map1))
                                                    (=>
                                                      (= z (slide
                                                             (to_array
                                                               temp___415)
                                                             (first
                                                               temp___415)
                                                             0))
                                                      (=>
                                                        (has_bounds z 0 31)
                                                        (=>
                                                          (in_range shift)
                                                          (=>
                                                            (has_bounds1
                                                              a
                                                              0
                                                              15)
                                                            (=>
                                                              (has_bounds1
                                                                b
                                                                0
                                                                15)
                                                              (=>
                                                                (has_bounds1
                                                                  c
                                                                  0
                                                                  15)
                                                                (=>
                                                                  (has_bounds1
                                                                    d
                                                                    0
                                                                    15)
                                                                  (=>
                                                                    (has_bounds1
                                                                    e
                                                                    0
                                                                    15)
                                                                    (=>
                                                                    (has_bounds1
                                                                    f
                                                                    0
                                                                    15)
                                                                    (=>
                                                                    (has_bounds1
                                                                    t1
                                                                    0
                                                                    15)
                                                                    (=>
                                                                    (has_bounds1
                                                                    t2
                                                                    0
                                                                    15)
                                                                    (=>
                                                                    (has_bounds
                                                                    result__
                                                                    0
                                                                    31)
                                                                    (forall 
                                                                    ((b1 map2))
                                                                    (=>
                                                                    (= b1 x)
                                                                    (forall 
                                                                    ((c1 map2))
                                                                    (=>
                                                                    (= c1 
                                                                    gf_0)
                                                                    (forall 
                                                                    ((a1 map2))
                                                                    (=>
                                                                    (= a1 
                                                                    gf_1)
                                                                    (forall 
                                                                    ((d1 map2))
                                                                    (=>
                                                                    (= d1 
                                                                    gf_1)
                                                                    (forall 
                                                                    ((i (_ BitVec 32)))
                                                                    (=>
                                                                    (= i #x000000FE)
                                                                    (=>
                                                                    (= (and 
                                                                    (ite (bvule #x00000000 i)
                                                                    true
                                                                    false) 
                                                                    (ite (bvule i #x000000FE)
                                                                    true
                                                                    false)) true)
                                                                    (let ((o2 (bv2nat (bvlshr i ((_ int2bv 32) 3)))))
                                                                    (=>
                                                                    (in_range3
                                                                    o2)
                                                                    (=>
                                                                    (and
                                                                    (<= 0 o2)
                                                                    (<= o2 31))
                                                                    (forall 
                                                                    ((o3 (_ BitVec 8)))
                                                                    (=>
                                                                    (= 
                                                                    (to_rep
                                                                    (get
                                                                    z
                                                                    o2)) o3)
                                                                    (forall 
                                                                    ((cb (_ BitVec 8)))
                                                                    (=>
                                                                    (= cb o3)
                                                                    (<= (bv2nat (bvand i #x00000007)) 2147483647))))))))))))))))))))))))))))))))))))))))))))))))))))))))))

(check-sat)
